NAME: tsp15_16
COMMENT: 15-tsp problem (Padberg/Rinaldi)
TYPE: TSP
DIMENSION: 15
EDGE_WEIGHT_TYPE : EUC_2D
NODE_COORD_SECTION
1 39 23
2 3 10
3 23 39
4 6 5
5 5 13
6 11 12
7 2 1
8 3 3
9 3 28
10 34 32
11 33 34
12 12 38
13 24 29
14 22 12
15 17 40
